Berlin 52

18-40-7-8-9-42-32-50-10-51-13-12-46-25-26-27-11-24-3-5-14-4-23-47-37-36-39-38-35-34-33-43-45-15-28-49-19-22-29-1-6-41-20-16-2-17-30-21-0-48-31-44 7542

40-7-8-9-42-32-50-10-51-13-12-46-25-26-27-11-24-3-5-14-4-23-47-37-36-39-38-35-34-33-43-45-15-28-49-19-29-1-6-41-20-16-2-17-30-22-21-0-48-31-44-18 7681

1-29-22-19-49-28-43-15-45-47-36-33-34-35-38-39-37-23-4-14-5-3-24-11-27-26-25-46-12-13-51-10-50-32-42-9-8-7-40-18-44-31-48-0-21-30-17-2-16-20-41-6 7776

43-45-24-11-50-10-51-13-12-26-27-25-46-28-15-49-19-22-29-41-1-6-16-2-17-20-30-21-0-48-31-44-18-40-7-8-9-32-42-3-5-14-4-23-47-37-36-39-38-35-34-33 7910
